\ LP format - for model browsing. Use MPS format to capture full model detail.
Maximize
obj:   x[1] + x[128] + x[129] + x[7] + x[8] + x[143] + x[17] + x[150] + x[23]
   + x[27] + x[39] + x[40] + x[57] + x[67] + x[70] + x[73] + x[77] + x[79]
   + x[87] + x[89] + x[90] + x[93] + x[94] + x[115] + x[118] + x[121]
   + x[2] + x[5] + x[136] + x[11] + x[146] + x[19] + x[22] + x[28] + x[37]
   + x[38] + x[53] + x[64] + x[66] + x[82] + x[97] + x[98] + x[99] + x[100]
   + x[101] + x[104] + x[112] + x[114] + x[119] + x[3] + x[9] + x[10]
   + x[12] + x[13] + x[14] + x[16] + x[26] + x[30] + x[33] + x[47] + x[52]
   + x[138] + x[60] + x[61] + x[69] + x[141] + x[85] + x[144] + x[111]
   + x[113] + x[122] + x[123] + x[4] + x[131] + x[132] + x[133] + x[135]
   + x[145] + x[18] + x[21] + x[24] + x[34] + x[35] + x[44] + x[55] + x[58]
   + x[62] + x[68] + x[76] + x[91] + x[106] + x[109] + x[140] + x[15]
   + x[20] + x[51] + x[56] + x[59] + x[139] + x[81] + x[105] + x[116]
   + x[148] + x[125] + x[126] + x[6] + x[137] + x[149] + x[72] + x[75]
   + x[83] + x[102] + x[110] + x[130] + x[134] + x[142] + x[31] + x[50]
   + x[65] + x[80] + x[86] + x[95] + x[96] + x[124] + x[127] + x[74]
   + x[84] + x[88] + x[103] + x[117] + x[36] + x[43] + x[108] + x[32]
   + x[41] + x[42] + x[45] + x[46] + x[63] + x[120] + x[49] + x[48] + x[78]
   + x[147] + x[54] + x[92] + x[71] + x[107] + x[25] + x[29]
Subject To
 clq1: x[73] + x[5] + x[99] + x[56] <= 1
 clq2: x[27] + x[5] + x[60] + x[105] <= 1
 clq3: x[121] + x[5] + x[38] + x[81] + x[116] <= 1
 clq4: x[97] + x[56] + x[103] <= 1
 clq5: x[70] + x[105] + x[125] + x[102] + x[103] <= 1
 clq6: x[128] + x[141] + x[88] <= 1
 clq7: x[37] + x[135] + x[105] + x[108] <= 1
 clq8: x[82] + x[97] + x[98] + x[141] <= 1
 clq9: x[93] + x[5] + x[30] + x[139] <= 1
 clq10: x[16] + x[139] + x[134] + x[88] <= 1
 clq11: x[7] + x[135] + x[145] <= 1
 clq12: x[27] + x[10] + x[139] + x[42] <= 1
 clq13: x[39] + x[5] + x[148] <= 1
 clq14: x[37] + x[99] + x[147] <= 1
 clq15: x[66] + x[97] + x[112] + x[49] <= 1
 clq16: x[14] + x[62] + x[102] <= 1
 clq17: x[39] + x[56] + x[32] + x[54] <= 1
 clq18: x[7] + x[70] + x[50] + x[124] <= 1
 clq19: x[10] + x[55] + x[116] + x[103] <= 1
 clq20: x[27] + x[146] + x[104] + x[30] <= 1
 clq21: x[143] + x[88] + x[108] + x[147] <= 1
 clq22: x[128] + x[12] + x[138] <= 1
 clq23: x[87] + x[37] + x[56] <= 1
 clq24: x[77] + x[93] + x[138] + x[145] <= 1
 clq25: x[67] + x[82] + x[69] + x[132] <= 1
 clq26: x[66] + x[16] + x[33] + x[102] <= 1
 clq27: x[62] + x[140] + x[49] <= 1
 clq28: x[138] + x[148] + x[80] + x[103] <= 1
 clq29: x[57] + x[5] + x[141] <= 1
 clq30: x[97] + x[20] + x[50] + x[74] <= 1
 clq31: x[136] + x[99] + x[14] + x[49] <= 1
 clq32: x[114] + x[81] + x[125] + x[32] <= 1
 clq33: x[37] + x[34] + x[124] + x[63] <= 1
 clq34: x[128] + x[132] + x[135] + x[41] <= 1
 clq35: x[7] + x[38] + x[3] <= 1
 clq36: x[70] + x[73] + x[87] + x[62] <= 1
 clq37: x[115] + x[22] + x[104] + x[111] <= 1
 clq38: x[2] + x[5] + x[19] <= 1
 clq39: x[100] + x[61] + x[44] <= 1
 clq40: x[52] + x[144] + x[15] + x[116] <= 1
 clq41: x[149] + x[72] + x[88] <= 1
 clq42: x[1] + x[129] + x[39] + x[40] + x[90] <= 1
 clq43: x[57] + x[93] + x[147] <= 1
 clq44: x[89] + x[146] + x[114] + x[33] <= 1
 clq45: x[82] + x[3] + x[10] <= 1
 clq46: x[26] + x[56] + x[72] <= 1
 clq47: x[141] + x[137] + x[65] + x[36] <= 1
 clq48: x[38] + x[145] + x[148] + x[108] <= 1
 clq49: x[140] + x[124] + x[32] + x[120] <= 1
 clq50: x[17] + x[131] + x[102] + x[71] <= 1
 clq51: x[7] + x[94] + x[99] + x[80] <= 1
 clq52: x[23] + x[19] + x[68] <= 1
 clq53: x[27] + x[97] + x[148] + x[65] <= 1
 clq54: x[100] + x[14] + x[69] + x[117] <= 1
 clq55: x[101] + x[55] + x[149] <= 1
 clq56: x[16] + x[135] + x[44] <= 1
 clq57: x[144] + x[122] + x[139] + x[50] <= 1
 clq58: x[12] + x[4] + x[35] + x[106] <= 1
 clq59: x[77] + x[88] + x[78] + x[25] <= 1
 clq60: x[14] + x[26] + x[103] <= 1
 clq61: x[128] + x[10] + x[105] <= 1
 clq62: x[57] + x[22] + x[18] + x[120] <= 1
 clq63: x[87] + x[119] + x[110] <= 1
 clq64: x[17] + x[93] + x[56] <= 1
 clq65: x[115] + x[24] + x[81] <= 1
 clq66: x[67] + x[121] + x[147] <= 1
 clq67: x[5] + x[146] + x[59] <= 1
 clq68: x[37] + x[101] + x[6] + x[110] <= 1
 clq69: x[128] + x[53] + x[48] <= 1
 clq70: x[66] + x[84] + x[107] <= 1
 clq71: x[82] + x[21] + x[49] <= 1
 clq72: x[2] + x[104] + x[112] <= 1
 clq73: x[19] + x[3] + x[12] + x[61] <= 1
 clq74: x[62] + x[72] + x[75] + x[74] <= 1
 clq75: x[91] + x[15] + x[142] <= 1
 clq76: x[70] + x[35] + x[116] + x[63] <= 1
 clq77: x[5] + x[55] + x[140] + x[125] <= 1
 clq78: x[8] + x[145] + x[84] <= 1
 clq79: x[23] + x[26] + x[46] <= 1
 clq80: x[79] + x[12] + x[141] <= 1
 clq81: x[89] + x[28] + x[131] + x[132] <= 1
 clq82: x[64] + x[97] + x[16] <= 1
 clq83: x[33] + x[24] + x[68] + x[41] <= 1
 clq84: x[100] + x[111] + x[45] <= 1
 clq85: x[4] + x[44] + x[91] <= 1
 clq86: x[38] + x[51] + x[80] + x[29] <= 1
 clq87: x[59] + x[149] + x[103] <= 1
 clq88: x[102] + x[147] + x[92] <= 1
 clq89: x[73] + x[119] + x[9] + x[108] <= 1
 clq90: x[129] + x[136] + x[6] <= 1
 clq91: x[7] + x[40] + x[75] + x[86] <= 1
 clq92: x[143] + x[10] + x[63] <= 1
 clq93: x[27] + x[11] + x[138] + x[49] <= 1
 clq94: x[39] + x[145] + x[34] <= 1
 clq95: x[57] + x[87] + x[32] <= 1
 clq96: x[93] + x[82] + x[83] <= 1
 clq97: x[115] + x[44] + x[50] <= 1
 clq98: x[121] + x[76] <= 1
 clq99: x[53] + x[56] + x[41] <= 1
 clq100: x[17] + x[66] + x[52] <= 1
 clq101: x[99] + x[135] + x[54] <= 1
 clq102: x[98] + x[104] + x[122] <= 1
 clq103: x[112] + x[120] + x[48] <= 1
 clq104: x[79] + x[2] + x[114] <= 1
 clq105: x[21] + x[81] + x[108] + x[25] <= 1
 clq106: x[148] + x[126] + x[88] <= 1
 clq107: x[129] + x[142] + x[124] <= 1
 clq108: x[8] + x[121] + x[18] <= 1
 clq109: x[23] + x[37] + x[58] <= 1
 clq110: x[67] + x[111] + x[71] <= 1
 clq111: x[39] + x[77] + x[53] + x[141] <= 1
 clq112: x[57] + x[90] + x[102] <= 1
 clq113: x[146] + x[16] + x[111] + x[21] <= 1
 clq114: x[22] + x[33] + x[138] + x[137] <= 1
 clq115: x[64] + x[13] + x[91] <= 1
 clq116: x[61] + x[135] + x[149] <= 1
 clq117: x[69] + x[139] + x[45] <= 1
 clq118: x[4] + x[18] + x[62] <= 1
 clq119: x[77] + x[19] + x[76] + x[103] <= 1
 clq120: x[89] + x[116] + x[74] <= 1
 clq121: x[136] + x[97] + x[125] <= 1
 clq122: x[114] + x[10] + x[46] <= 1
 clq123: x[87] + x[102] + x[107] <= 1
 clq124: x[128] + x[140] + x[25] <= 1
 clq125: x[143] + x[26] + x[65] <= 1
 clq126: x[93] + x[100] + x[80] <= 1
 clq127: x[115] + x[101] + x[15] <= 1
 clq128: x[28] + x[66] + x[34] <= 1
 clq129: x[70] + x[37] + x[82] + x[48] <= 1
 clq130: x[99] + x[116] + x[50] <= 1
 clq131: x[104] + x[132] + x[116] + x[32] <= 1
 clq132: x[115] + x[11] + x[112] + x[131] <= 1
 clq133: x[67] + x[3] + x[14] + x[85] <= 1
 clq134: x[52] + x[135] + x[51] <= 1
 clq135: x[5] + x[33] + x[144] + x[58] <= 1
 clq136: x[122] + x[56] + x[74] <= 1
 clq137: x[55] + x[59] + x[127] <= 1
 clq138: x[145] + x[68] + x[105] + x[72] <= 1
 clq139: x[89] + x[101] + x[126] + x[124] <= 1
 clq140: x[106] + x[84] + x[147] <= 1
 clq141: x[8] + x[61] + x[88] <= 1
 clq142: x[41] + x[63] + x[92] <= 1
 clq143: x[7] + x[79] + x[130] <= 1
 clq144: x[23] + x[76] + x[6] <= 1
 clq145: x[27] + x[9] + x[36] <= 1
 clq146: x[40] + x[134] + x[49] <= 1
 clq147: x[73] + x[13] + x[141] + x[63] <= 1
 clq148: x[90] + x[2] + x[119] <= 1
 clq149: x[121] + x[142] + x[45] <= 1
 clq150: x[38] + x[66] + x[125] <= 1
 clq151: x[17] + x[64] + x[133] <= 1
 clq152: x[98] + x[52] + x[44] <= 1
 clq153: x[60] + x[149] + x[50] <= 1
 clq154: x[69] + x[20] + x[25] <= 1
 clq155: x[17] + x[24] + x[86] + x[107] <= 1
 clq156: x[62] + x[139] + x[65] <= 1
 clq157: x[112] + x[4] + x[109] <= 1
 clq158: x[81] + x[110] + x[147] <= 1
 clq159: x[95] + x[46] + x[71] <= 1
 clq160: x[129] + x[93] + x[54] <= 1
 clq161: x[1] + x[143] <= 1
 clq162: x[128] + x[136] + x[51] <= 1
 clq163: x[150] + x[39] + x[26] + x[139] <= 1
 clq164: x[87] + x[69] + x[88] <= 1
 clq165: x[2] + x[146] + x[99] <= 1
 clq166: x[22] + x[140] <= 1
 clq167: x[28] + x[80] + x[74] + x[25] <= 1
 clq168: x[97] + x[96] + x[43] <= 1
 clq169: x[100] + x[138] + x[34] <= 1
 clq170: x[19] + x[114] + x[84] <= 1
 clq171: x[10] + x[85] + x[59] <= 1
 clq172: x[128] + x[16] + x[137] <= 1
 clq173: x[121] + x[113] + x[148] <= 1
 clq174: x[3] + x[122] + x[123] <= 1
 clq175: x[35] + x[56] + x[130] <= 1
 clq176: x[4] + x[133] + x[55] <= 1
 clq177: x[133] + x[91] + x[103] <= 1
 clq178: x[15] + x[139] + x[92] <= 1
 clq179: x[6] + x[83] + x[102] <= 1
 clq180: x[27] + x[127] + x[120] <= 1
 clq181: x[1] + x[7] + x[73] <= 1
 clq182: x[8] + x[60] + x[142] + x[96] <= 1
 clq183: x[143] + x[140] + x[75] <= 1
 clq184: x[23] + x[90] + x[36] <= 1
 clq185: x[40] + x[69] + x[32] <= 1
 clq186: x[57] + x[9] + x[103] <= 1
 clq187: x[79] + x[105] + x[134] <= 1
 clq188: x[22] + x[38] + x[45] <= 1
 clq189: x[53] + x[16] + x[20] <= 1
 clq190: x[64] + x[44] + x[109] <= 1
 clq191: x[82] + x[125] + x[149] <= 1
 clq192: x[146] + x[98] + x[48] <= 1
 clq193: x[104] + x[60] + x[124] <= 1
 clq194: x[14] + x[30] + x[44] <= 1
 clq195: x[114] + x[47] + x[72] <= 1
 clq196: x[61] + x[144] <= 1
 clq197: x[10] + x[18] + x[108] <= 1
 clq198: x[118] + x[131] + x[62] <= 1
 clq199: x[135] + x[81] + x[49] <= 1
 clq200: x[16] + x[126] + x[71] <= 1
 clq201: x[66] + x[144] + x[110] <= 1
 clq202: x[129] + x[77] + x[87] + x[95] <= 1
 clq203: x[75] + x[88] + x[46] + x[54] <= 1
 clq204: x[150] + x[145] + x[29] <= 1
 clq205: x[67] + x[30] + x[52] <= 1
 clq206: x[93] + x[11] + x[33] <= 1
 clq207: x[5] + x[13] + x[35] <= 1
 clq208: x[136] + x[132] + x[20] <= 1
 clq209: x[37] + x[12] + x[59] <= 1
 clq210: x[97] + x[4] + x[24] <= 1
 clq211: x[99] + x[61] + x[4] + x[21] <= 1
 clq212: x[7] + x[100] + x[65] <= 1
 clq213: x[111] + x[15] + x[6] <= 1
 clq214: x[113] + x[135] + x[50] <= 1
 clq215: x[122] + x[137] + x[130] <= 1
 clq216: x[143] + x[123] + x[84] <= 1
 clq217: x[34] + x[91] + x[148] <= 1
 clq218: x[55] + x[58] + x[41] <= 1
 clq219: x[66] + x[68] + x[51] <= 1
 clq220: x[112] + x[76] + x[43] <= 1
 clq221: x[22] + x[56] <= 1
 clq222: x[83] + x[92] <= 1
 clq223: x[79] + x[116] + x[31] <= 1
 clq224: x[72] + x[86] + x[147] <= 1
 clq225: x[120] + x[29] <= 1
 clq226: x[134] + x[107] <= 1
 clq227: x[1] + x[128] + x[70] + x[79] <= 1
 clq228: x[23] + x[40] + x[104] <= 1
 clq229: x[27] + x[39] + x[101] <= 1
 clq230: x[57] + x[2] + x[82] <= 1
 clq231: x[17] + x[89] + x[3] <= 1
 clq232: x[90] + x[18] + x[127] <= 1
 clq233: x[115] + x[38] <= 1
 clq234: x[121] + x[108] <= 1
 clq235: x[19] + x[9] + x[62] <= 1
 clq236: x[28] + x[140] + x[29] <= 1
 clq237: x[53] + x[33] + x[105] <= 1
 clq238: x[11] + x[64] + x[120] <= 1
 clq239: x[98] + x[145] + x[81] <= 1
 clq240: x[119] + x[58] + x[48] <= 1
 clq241: x[14] + x[126] + x[78] <= 1
 clq242: x[26] + x[83] <= 1
 clq243: x[47] + x[36] + x[108] <= 1
 clq244: x[141] + x[92] + x[107] <= 1
 clq245: x[85] + x[106] <= 1
 clq246: x[109] + x[80] <= 1
 clq247: x[67] + x[56] + x[95] <= 1
 clq248: x[125] + x[86] + x[71] <= 1
 clq249: x[132] + x[149] + x[108] <= 1
 clq250: x[35] + x[102] <= 1
 clq251: x[121] + x[110] + x[65] <= 1
 clq252: x[134] + x[124] + x[103] <= 1
 clq253: x[10] + x[83] + x[32] <= 1
 clq254: x[13] + x[45] + x[54] <= 1
 clq255: x[8] + x[5] <= 1
 clq256: x[67] + x[73] + x[100] <= 1
 clq257: x[40] + x[93] + x[43] <= 1
 clq258: x[94] + x[131] <= 1
 clq259: x[8] + x[115] + x[37] <= 1
 clq260: x[118] + x[2] + x[38] <= 1
 clq261: x[136] + x[64] + x[15] <= 1
 clq262: x[146] + x[18] + x[68] <= 1
 clq263: x[22] + x[97] + x[52] <= 1
 clq264: x[114] + x[74] <= 1
 clq265: x[12] + x[69] + x[42] <= 1
 clq266: x[26] + x[41] <= 1
 clq267: x[61] + x[85] + x[34] <= 1
 clq268: x[144] + x[102] + x[63] <= 1
 clq269: x[111] + x[109] + x[49] <= 1
 clq270: x[113] + x[116] + x[142] <= 1
 clq271: x[5] + x[122] + x[51] <= 1
 clq272: x[129] + x[123] + x[80] <= 1
 clq273: x[24] + x[50] + x[78] <= 1
 clq274: x[61] + x[55] + x[76] <= 1
 clq275: x[91] + x[81] + x[31] <= 1
 clq276: x[106] + x[46] <= 1
 clq277: x[59] + x[148] + x[6] <= 1
 clq278: x[137] + x[41] <= 1
 clq279: x[115] + x[9] + x[84] <= 1
 clq280: x[130] + x[96] + x[147] <= 1
 clq281: x[7] + x[83] + x[110] <= 1
 clq282: x[143] + x[81] + x[137] <= 1
 clq283: x[150] + x[131] + x[46] <= 1
 clq284: x[23] + x[77] + x[140] <= 1
 clq285: x[27] + x[90] + x[35] <= 1
 clq286: x[57] + x[133] <= 1
 clq287: x[87] + x[98] + x[105] <= 1
 clq288: x[89] + x[82] + x[99] + x[25] <= 1
 clq289: x[94] + x[9] + x[13] + x[14] <= 1
 clq290: x[19] + x[104] + x[15] <= 1
 clq291: x[28] + x[101] + x[88] <= 1
 clq292: x[53] + x[58] + x[106] <= 1
 clq293: x[112] + x[110] + x[36] <= 1
 clq294: x[57] + x[114] + x[138] <= 1
 clq295: x[119] + x[69] + x[56] <= 1
 clq296: x[3] + x[141] + x[111] <= 1
 clq297: x[26] + x[125] + x[42] <= 1
 clq298: x[118] + x[30] + x[45] <= 1
 clq299: x[47] + x[81] + x[124] <= 1
 clq300: x[18] + x[21] + x[149] <= 1
 clq301: x[44] + x[107] <= 1
 clq302: x[115] + x[62] + x[120] <= 1
 clq303: x[52] + x[20] + x[71] <= 1
 clq304: x[34] + x[126] <= 1
 clq305: x[72] + x[42] + x[48] <= 1
 clq306: x[21] + x[127] + x[32] <= 1
 clq307: x[37] + x[51] + x[74] <= 1
 clq308: x[97] + x[100] + x[92] + x[25] <= 1
 clq309: x[1] + x[121] <= 1
 clq310: x[39] + x[136] <= 1
 clq311: x[70] + x[24] + x[65] <= 1
 clq312: x[73] + x[134] <= 1
 clq313: x[93] + x[47] + x[109] <= 1
 clq314: x[11] + x[41] <= 1
 clq315: x[146] + x[75] <= 1
 clq316: x[22] + x[85] <= 1
 clq317: x[38] + x[101] + x[119] + x[123] <= 1
 clq318: x[66] + x[12] <= 1
 clq319: x[10] + x[132] <= 1
 clq320: x[3] + x[16] + x[47] + x[60] <= 1
 clq321: x[144] + x[103] <= 1
 clq322: x[113] + x[95] <= 1
 clq323: x[122] + x[102] + x[84] <= 1
 clq324: x[104] + x[133] + x[107] <= 1
 clq325: x[135] + x[140] + x[43] <= 1
 clq326: x[145] + x[106] + x[117] <= 1
 clq327: x[44] + x[148] + x[45] <= 1
 clq328: x[55] + x[68] + x[50] <= 1
 clq329: x[10] + x[76] + x[130] <= 1
 clq330: x[91] + x[139] + x[71] <= 1
 clq331: x[59] + x[105] + x[54] <= 1
 clq332: x[35] + x[126] + x[31] <= 1
 clq333: x[7] + x[56] + x[142] <= 1
 clq334: x[58] + x[80] + x[63] <= 1
 clq335: x[8] + x[86] + x[117] <= 1
 clq336: x[98] + x[96] + x[41] + x[49] <= 1
 clq337: x[41] + x[147] + x[29] <= 1
 clq338: x[1] + x[17] + x[150] <= 1
 clq339: x[128] + x[75] <= 1
 clq340: x[129] + x[34] + x[36] <= 1
 clq341: x[143] + x[5] + x[11] <= 1
 clq342: x[23] + x[132] <= 1
 clq343: x[27] + x[136] <= 1
 clq344: x[39] + x[114] + x[6] <= 1
 clq345: x[143] + x[40] + x[141] <= 1
 clq346: x[73] + x[137] + x[50] <= 1
 clq347: x[87] + x[2] + x[97] <= 1
 clq348: x[90] + x[72] <= 1
 clq349: x[121] + x[82] + x[74] <= 1
 clq350: x[146] + x[46] <= 1
 clq351: x[19] + x[131] + x[126] <= 1
 clq352: x[22] + x[26] <= 1
 clq353: x[28] + x[12] + x[95] <= 1
 clq354: x[53] + x[125] + x[134] <= 1
 clq355: x[64] + x[62] + x[108] <= 1
 clq356: x[66] + x[99] + x[20] + x[36] <= 1
 clq357: x[70] + x[112] + x[91] + x[107] <= 1
 clq358: x[30] + x[120] <= 1
 clq359: x[138] + x[149] + x[63] <= 1
 clq360: x[85] + x[103] + x[48] <= 1
 clq361: x[3] + x[144] + x[113] <= 1
 clq362: x[75] + x[124] + x[43] <= 1
 clq363: x[127] + x[88] <= 1
 clq364: x[67] + x[44] + x[32] <= 1
 clq365: x[94] + x[102] + x[78] <= 1
 clq366: x[128] + x[133] + x[110] <= 1
 clq367: x[23] + x[130] + x[65] <= 1
 clq368: x[27] + x[68] + x[107] <= 1
 clq369: x[57] + x[76] + x[51] <= 1
 clq370: x[77] + x[51] + x[72] <= 1
 clq371: x[79] + x[43] + x[147] <= 1
 clq372: x[89] + x[135] + x[86] <= 1
 clq373: x[90] + x[132] <= 1
 clq374: x[93] + x[22] + x[92] <= 1
 clq375: x[39] + x[118] + x[15] <= 1
 clq376: x[2] + x[136] + x[37] <= 1
 clq377: x[94] + x[146] + x[145] <= 1
 clq378: x[14] + x[46] <= 1
 clq379: x[26] + x[84] + x[88] <= 1
 clq380: x[73] + x[30] + x[111] <= 1
 clq381: x[33] + x[52] + x[142] <= 1
 clq382: x[122] + x[109] + x[6] <= 1
 clq383: x[24] + x[116] + x[83] <= 1
 clq384: x[53] + x[55] + x[148] <= 1
 clq385: x[59] + x[124] + x[29] <= 1
 clq386: x[69] + x[31] <= 1
 clq387: x[141] + x[35] + x[80] <= 1
 clq388: x[138] + x[127] + x[54] <= 1
 clq389: x[10] + x[95] + x[120] <= 1
 clq390: x[1] + x[8] <= 1
 clq391: x[129] + x[5] + x[119] <= 1
 clq392: x[7] + x[134] <= 1
 clq393: x[17] + x[137] <= 1
 clq394: x[150] + x[38] + x[144] <= 1
 clq395: x[40] + x[46] + x[48] <= 1
 clq396: x[87] + x[71] + x[29] <= 1
 clq397: x[90] + x[103] <= 1
 clq398: x[121] + x[123] + x[44] <= 1
 clq399: x[11] + x[122] + x[34] <= 1
 clq400: x[19] + x[105] + x[78] <= 1
 clq401: x[28] + x[104] <= 1
 clq402: x[64] + x[132] <= 1
 clq403: x[100] + x[114] <= 1
 clq404: x[12] + x[18] + x[78] <= 1
 clq405: x[13] + x[32] <= 1
 clq406: x[14] + x[113] <= 1
 clq407: x[16] + x[74] <= 1
 clq408: x[60] + x[123] + x[49] <= 1
 clq409: x[61] + x[31] <= 1
 clq410: x[85] + x[137] <= 1
 clq411: x[4] + x[131] + x[135] <= 1
 clq412: x[21] + x[139] + x[130] <= 1
 clq413: x[62] + x[45] <= 1
 clq414: x[106] + x[139] + x[149] <= 1
 clq415: x[64] + x[33] + x[140] <= 1
 clq416: x[132] + x[56] <= 1
 clq417: x[9] + x[125] <= 1
 clq418: x[1] + x[67] <= 1
 clq419: x[128] + x[13] <= 1
 clq420: x[7] + x[16] + x[127] <= 1
 clq421: x[8] + x[133] + x[80] <= 1
 clq422: x[17] + x[5] + x[76] <= 1
 clq423: x[23] + x[82] + x[91] <= 1
 clq424: x[27] + x[74] <= 1
 clq425: x[57] + x[42] <= 1
 clq426: x[150] + x[77] + x[65] <= 1
 clq427: x[79] + x[98] <= 1
 clq428: x[89] + x[109] <= 1
 clq429: x[90] + x[75] + x[95] <= 1
 clq430: x[93] + x[101] + x[114] <= 1
 clq431: x[115] + x[72] <= 1
 clq432: x[118] + x[102] <= 1
 clq433: x[136] + x[134] <= 1
 clq434: x[146] + x[37] <= 1
 clq435: x[22] + x[62] + x[127] <= 1
 clq436: x[28] + x[58] + x[83] <= 1
 clq437: x[66] + x[13] + x[147] <= 1
 clq438: x[100] + x[9] + x[142] <= 1
 clq439: x[104] + x[45] <= 1
 clq440: x[112] + x[69] <= 1
 clq441: x[14] + x[148] <= 1
 clq442: x[26] + x[4] + x[68] <= 1
 clq443: x[70] + x[30] + x[145] <= 1
 clq444: x[52] + x[103] + x[117] <= 1
 clq445: x[61] + x[120] <= 1
 clq446: x[85] + x[113] + x[88] <= 1
 clq447: x[138] + x[111] + x[108] <= 1
 clq448: x[24] + x[56] + x[36] <= 1
 clq449: x[132] + x[55] + x[88] <= 1
 clq450: x[60] + x[15] + x[86] <= 1
 clq451: x[35] + x[20] + x[48] <= 1
 clq452: x[59] + x[50] + x[92] <= 1
 clq453: x[116] + x[84] <= 1
 clq454: x[121] + x[125] + x[31] <= 1
 clq455: x[37] + x[10] + x[126] + x[41] <= 1
 clq456: x[19] + x[134] + x[32] <= 1
 clq457: x[67] + x[63] <= 1
 clq458: x[112] + x[102] + x[54] <= 1
 clq459: x[1] + x[57] + x[115] <= 1
 clq460: x[128] + x[97] + x[113] <= 1
 clq461: x[129] + x[143] + x[53] <= 1
 clq462: x[27] + x[99] <= 1
 clq463: x[39] + x[98] <= 1
 clq464: x[40] + x[101] + x[42] <= 1
 clq465: x[73] + x[28] + x[46] <= 1
 clq466: x[79] + x[71] <= 1
 clq467: x[87] + x[11] <= 1
 clq468: x[89] + x[12] + x[62] <= 1
 clq469: x[118] + x[81] <= 1
 clq470: x[2] + x[66] + x[101] <= 1
 clq471: x[136] + x[104] + x[140] <= 1
 clq472: x[146] + x[144] + x[45] <= 1
 clq473: x[70] + x[38] + x[99] <= 1
 clq474: x[14] + x[63] <= 1
 clq475: x[61] + x[49] <= 1
 clq476: x[69] + x[141] + x[55] <= 1
 clq477: x[131] + x[72] <= 1
 clq478: x[18] + x[80] <= 1
 clq479: x[21] + x[83] + x[124] <= 1
 clq480: x[34] + x[74] <= 1
 clq481: x[106] + x[120] <= 1
 clq482: x[109] + x[116] + x[130] <= 1
 clq483: x[138] + x[105] + x[75] <= 1
 clq484: x[122] + x[148] <= 1
 clq485: x[6] + x[137] <= 1
 clq486: x[68] + x[149] <= 1
 clq487: x[110] + x[96] <= 1
 clq488: x[135] + x[84] <= 1
 clq489: x[7] + x[82] <= 1
 clq490: x[8] + x[33] + x[74] <= 1
 clq491: x[17] + x[14] <= 1
 clq492: x[23] + x[49] <= 1
 clq493: x[27] + x[106] <= 1
 clq494: x[39] + x[71] <= 1
 clq495: x[67] + x[144] + x[131] <= 1
 clq496: x[77] + x[100] <= 1
 clq497: x[79] + x[11] <= 1
 clq498: x[87] + x[114] <= 1
 clq499: x[90] + x[118] + x[133] <= 1
 clq500: x[93] + x[98] <= 1
 clq501: x[94] + x[103] <= 1
 clq502: x[22] + x[99] + x[34] <= 1
 clq503: x[64] + x[58] + x[6] <= 1
 clq504: x[119] + x[50] <= 1
 clq505: x[3] + x[52] <= 1
 clq506: x[112] + x[16] + x[15] <= 1
 clq507: x[26] + x[43] <= 1
 clq508: x[30] + x[18] <= 1
 clq509: x[118] + x[47] + x[145] <= 1
 clq510: x[61] + x[81] <= 1
 clq511: x[85] + x[110] <= 1
 clq512: x[111] + x[147] <= 1
 clq513: x[24] + x[51] <= 1
 clq514: x[44] + x[137] <= 1
 clq515: x[76] + x[56] <= 1
 clq516: x[20] + x[149] <= 1
 clq517: x[38] + x[59] <= 1
 clq518: x[131] + x[148] + x[125] <= 1
 clq519: x[72] + x[29] <= 1
 clq520: x[142] + x[32] <= 1
 clq521: x[7] + x[31] <= 1
 clq522: x[129] + x[65] + x[43] <= 1
 clq523: x[104] + x[86] <= 1
 clq524: x[102] + x[96] <= 1
 clq525: x[40] + x[84] <= 1
 clq526: x[137] + x[117] <= 1
 clq527: x[33] + x[108] + x[120] <= 1
 clq528: x[136] + x[82] + x[63] <= 1
 clq529: x[132] + x[54] <= 1
 clq530: x[98] + x[92] <= 1
 clq531: x[44] + x[46] + x[25] <= 1
 clq532: x[1] + x[77] <= 1
 clq533: x[128] + x[35] <= 1
 clq534: x[143] + x[100] <= 1
 clq535: x[17] + x[2] <= 1
 clq536: x[150] + x[76] <= 1
 clq537: x[23] + x[5] <= 1
 clq538: x[27] + x[73] <= 1
 clq539: x[39] + x[60] + x[51] <= 1
 clq540: x[57] + x[4] + x[34] <= 1
 clq541: x[79] + x[78] <= 1
 clq542: x[87] + x[122] <= 1
 clq543: x[89] + x[97] <= 1
 clq544: x[93] + x[19] <= 1
 clq545: x[94] + x[16] + x[109] <= 1
 clq546: x[115] + x[105] <= 1
 clq547: x[121] + x[30] + x[54] <= 1
 clq548: x[11] + x[69] <= 1
 clq549: x[146] + x[42] <= 1
 clq550: x[53] + x[92] <= 1
 clq551: x[40] + x[114] + x[68] <= 1
 clq552: x[119] + x[116] + x[126] <= 1
 clq553: x[3] + x[9] <= 1
 clq554: x[12] + x[142] <= 1
 clq555: x[3] + x[13] + x[33] <= 1
 clq556: x[11] + x[14] + x[32] <= 1
 clq557: x[26] + x[50] <= 1
 clq558: x[52] + x[149] + x[83] <= 1
 clq559: x[61] + x[134] <= 1
 clq560: x[141] + x[72] <= 1
 clq561: x[150] + x[85] + x[18] <= 1
 clq562: x[111] + x[140] <= 1
 clq563: x[123] + x[71] <= 1
 clq564: x[135] + x[56] <= 1
 clq565: x[21] + x[95] <= 1
 clq566: x[24] + x[91] <= 1
 clq567: x[106] + x[80] <= 1
 clq568: x[20] + x[139] + x[127] <= 1
 clq569: x[89] + x[59] + x[110] <= 1
 clq570: x[35] + x[81] <= 1
 clq571: x[133] + x[31] <= 1
 clq572: x[73] + x[86] <= 1
 clq573: x[96] + x[103] <= 1
 clq574: x[124] + x[117] <= 1
 clq575: x[84] + x[45] <= 1
 clq576: x[69] + x[49] <= 1
 clq577: x[67] + x[48] <= 1
 clq578: x[77] + x[147] <= 1
 clq579: x[132] + x[107] <= 1
 clq580: x[97] + x[29] <= 1
 clq581: x[1] + x[23] + x[87] <= 1
 clq582: x[128] + x[9] <= 1
 clq583: x[7] + x[53] <= 1
 clq584: x[8] + x[103] <= 1
 clq585: x[143] + x[106] <= 1
 clq586: x[17] + x[10] + x[45] <= 1
 clq587: x[27] + x[75] <= 1
 clq588: x[79] + x[102] <= 1
 clq589: x[90] + x[135] <= 1
 clq590: x[93] + x[86] <= 1
 clq591: x[115] + x[65] <= 1
 clq592: x[2] + x[98] <= 1
 clq593: x[5] + x[15] <= 1
 clq594: x[146] + x[47] <= 1
 clq595: x[19] + x[42] <= 1
 clq596: x[22] + x[105] <= 1
 clq597: x[28] + x[81] <= 1
 clq598: x[37] + x[36] <= 1
 clq599: x[38] + x[100] <= 1
 clq600: x[64] + x[24] <= 1
 clq601: x[66] + x[117] <= 1
 clq602: x[104] + x[26] + x[35] <= 1
 clq603: x[12] + x[132] + x[48] <= 1
 clq604: x[61] + x[122] <= 1
 clq605: x[141] + x[142] <= 1
 clq606: x[111] + x[56] <= 1
 clq607: x[113] + x[72] <= 1
 clq608: x[123] + x[134] <= 1
 clq609: x[145] + x[71] <= 1
 clq610: x[21] + x[43] <= 1
 clq611: x[55] + x[108] <= 1
 clq612: x[58] + x[71] + x[107] <= 1
 clq613: x[62] + x[147] <= 1
 clq614: x[70] + x[4] + x[76] <= 1
 clq615: x[91] + x[74] <= 1
 clq616: x[140] + x[84] <= 1
 clq617: x[148] + x[130] <= 1
 clq618: x[125] + x[137] <= 1
 clq619: x[97] + x[6] <= 1
 clq620: x[37] + x[31] <= 1
 clq621: x[50] + x[80] <= 1
 clq622: x[95] + x[49] <= 1
 clq623: x[135] + x[125] + x[96] <= 1
 clq624: x[69] + x[113] + x[124] <= 1
 clq625: x[65] + x[88] <= 1
 clq626: x[36] + x[63] <= 1
 clq627: x[120] + x[78] <= 1
 clq628: x[66] + x[92] <= 1
 clq629: x[133] + x[145] + x[25] <= 1
 clq630: x[53] + x[100] + x[29] <= 1
 clq631: x[128] + x[85] <= 1
 clq632: x[129] + x[103] <= 1
 clq633: x[7] + x[55] <= 1
 clq634: x[8] + x[56] <= 1
 clq635: x[143] + x[20] <= 1
 clq636: x[27] + x[13] <= 1
 clq637: x[39] + x[49] <= 1
 clq638: x[57] + x[106] + x[81] <= 1
 clq639: x[67] + x[108] <= 1
 clq640: x[73] + x[102] <= 1
 clq641: x[77] + x[44] <= 1
 clq642: x[79] + x[112] <= 1
 clq643: x[90] + x[139] <= 1
 clq644: x[93] + x[88] <= 1
 clq645: x[94] + x[41] <= 1
 clq646: x[115] + x[138] <= 1
 clq647: x[121] + x[28] + x[75] <= 1
 clq648: x[2] + x[22] <= 1
 clq649: x[5] + x[18] <= 1
 clq650: x[136] + x[105] + x[126] <= 1
 clq651: x[146] + x[125] + x[120] <= 1
 clq652: x[19] + x[110] <= 1
 clq653: x[38] + x[134] <= 1
 clq654: x[64] + x[46] <= 1
 clq655: x[82] + x[68] <= 1
 clq656: x[98] + x[6] <= 1
 clq657: x[114] + x[14] <= 1
 clq658: x[119] + x[117] <= 1
 clq659: x[9] + x[109] <= 1
 clq660: x[66] + x[30] <= 1
 clq661: x[47] + x[140] <= 1
 clq662: x[52] + x[63] <= 1
 clq663: x[60] + x[34] <= 1
 clq664: x[61] + x[36] <= 1
 clq665: x[141] + x[21] + x[54] <= 1
 clq666: x[10] + x[144] <= 1
 clq667: x[111] + x[116] <= 1
 clq668: x[122] + x[78] <= 1
 clq669: x[123] + x[74] <= 1
 clq670: x[24] + x[32] <= 1
 clq671: x[62] + x[149] <= 1
 clq672: x[91] + x[72] <= 1
 clq673: x[15] + x[31] <= 1
 clq674: x[51] + x[95] <= 1
 clq675: x[59] + x[74] <= 1
 clq676: x[37] + x[148] <= 1
 clq677: x[137] + x[42] <= 1
 clq678: x[123] + x[142] <= 1
 clq679: x[12] + x[50] <= 1
 clq680: x[80] + x[84] <= 1
 clq681: x[137] + x[86] <= 1
 clq682: x[39] + x[19] + x[147] <= 1
 clq683: x[131] + x[92] <= 1
 clq684: x[1] + x[27] + x[118] <= 1
 clq685: x[128] + x[99] <= 1
 clq686: x[129] + x[3] <= 1
 clq687: x[7] + x[24] <= 1
 clq688: x[8] + x[104] <= 1
 clq689: x[143] + x[21] + x[56] <= 1
 clq690: x[17] + x[13] <= 1
 clq691: x[150] + x[114] <= 1
 clq692: x[23] + x[57] + x[112] <= 1
 clq693: x[40] + x[16] <= 1
 clq694: x[67] + x[101] <= 1
 clq695: x[73] + x[88] <= 1
 clq696: x[77] + x[60] <= 1
 clq697: x[79] + x[144] + x[108] <= 1
 clq698: x[87] + x[139] <= 1
 clq699: x[89] + x[14] <= 1
 clq700: x[90] + x[111] <= 1
 clq701: x[93] + x[91] <= 1
 clq702: x[94] + x[76] <= 1
 clq703: x[115] + x[63] <= 1
 clq704: x[2] + x[11] + x[53] <= 1
 clq705: x[5] + x[20] <= 1
 clq706: x[22] + x[9] <= 1
 clq707: x[38] + x[97] <= 1
 clq708: x[70] + x[64] <= 1
 clq709: x[82] + x[133] + x[45] <= 1
 clq710: x[98] + x[9] <= 1
 clq711: x[119] + x[86] <= 1
 clq712: x[26] + x[6] <= 1
 clq713: x[30] + x[102] <= 1
 clq714: x[129] + x[47] <= 1
 clq715: x[52] + x[41] <= 1
 clq716: x[138] + x[92] <= 1
 clq717: x[61] + x[68] <= 1
 clq718: x[85] + x[29] <= 1
 clq719: x[122] + x[65] <= 1
 clq720: x[61] + x[18] + x[48] <= 1
 clq721: x[44] + x[140] <= 1
 clq722: x[55] + x[49] <= 1
 clq723: x[58] + x[78] <= 1
 clq724: x[62] + x[59] <= 1
 clq725: x[109] + x[107] <= 1
 clq726: x[15] + x[103] <= 1
 clq727: x[51] + x[46] <= 1
 clq728: x[116] + x[148] <= 1
 clq729: x[149] + x[42] <= 1
 clq730: x[72] + x[43] <= 1
 clq731: x[38] + x[83] <= 1
 clq732: x[110] + x[134] + x[41] <= 1
 clq733: x[131] + x[130] <= 1
 clq734: x[37] + x[142] + x[107] <= 1
 clq735: x[73] + x[31] <= 1
 clq736: x[50] + x[32] <= 1
 clq737: x[80] + x[117] <= 1
 clq738: x[95] + x[84] <= 1
 clq739: x[7] + x[96] <= 1
 clq740: x[77] + x[124] <= 1
 clq741: x[69] + x[127] <= 1
 clq742: x[34] + x[25] <= 1
 clq743: x[128] + x[83] <= 1
 clq744: x[8] + x[150] <= 1
 clq745: x[17] + x[141] <= 1
 clq746: x[40] + x[145] <= 1
 clq747: x[67] + x[116] <= 1
 clq748: x[87] + x[26] <= 1
 clq749: x[89] + x[92] <= 1
 clq750: x[90] + x[148] <= 1
 clq751: x[93] + x[35] <= 1
 clq752: x[1] + x[94] <= 1
 clq753: x[115] + x[54] <= 1
 clq754: x[121] + x[86] + x[32] <= 1
 clq755: x[5] + x[101] <= 1
 clq756: x[136] + x[78] <= 1
 clq757: x[146] + x[49] <= 1
 clq758: x[22] + x[81] <= 1
 clq759: x[28] + x[85] <= 1
 clq760: x[64] + x[126] <= 1
 clq761: x[66] + x[106] <= 1
 clq762: x[97] + x[44] <= 1
 clq763: x[98] + x[113] <= 1
 clq764: x[99] + x[122] <= 1
 clq765: x[100] + x[62] <= 1
 clq766: x[104] + x[52] <= 1
 clq767: x[114] + x[12] <= 1
 clq768: x[119] + x[105] <= 1
 clq769: x[3] + x[138] <= 1
 clq770: x[10] + x[47] <= 1
 clq771: x[13] + x[51] <= 1
 clq772: x[14] + x[132] <= 1
 clq773: x[16] + x[120] <= 1
 clq774: x[30] + x[75] <= 1
 clq775: x[60] + x[58] <= 1
 clq776: x[111] + x[36] <= 1
 clq777: x[123] + x[135] <= 1
 clq778: x[4] + x[145] <= 1
 clq779: x[138] + x[24] <= 1
 clq780: x[55] + x[71] <= 1
 clq781: x[68] + x[109] <= 1
 clq782: x[76] + x[42] <= 1
 clq783: x[91] + x[105] <= 1
 clq784: x[122] + x[140] <= 1
 clq785: x[15] + x[65] <= 1
 clq786: x[109] + x[20] <= 1
 clq787: x[66] + x[59] <= 1
 clq788: x[98] + x[139] <= 1
 clq789: x[6] + x[149] <= 1
 clq790: x[137] + x[74] <= 1
 clq791: x[106] + x[72] <= 1
 clq792: x[102] + x[95] <= 1
 clq793: x[130] + x[103] <= 1
 clq794: x[51] + x[31] <= 1
 clq795: x[50] + x[88] <= 1
 clq796: x[134] + x[80] + x[42] <= 1
 clq797: x[114] + x[96] <= 1
 clq798: x[124] + x[46] <= 1
 clq799: x[127] + x[43] <= 1
 clq800: x[84] + x[29] <= 1
 clq801: x[131] + x[117] <= 1
 clq802: x[60] + x[63] <= 1
 clq803: x[33] + x[147] <= 1
 clq804: x[26] + x[25] <= 1
 clq805: x[128] + x[96] <= 1
 clq806: x[129] + x[127] <= 1
 clq807: x[7] + x[90] <= 1
 clq808: x[8] + x[83] <= 1
 clq809: x[143] + x[12] <= 1
 clq810: x[17] + x[110] <= 1
 clq811: x[150] + x[81] <= 1
 clq812: x[17] + x[23] <= 1
 clq813: x[27] + x[147] <= 1
 clq814: x[39] + x[28] <= 1
 clq815: x[40] + x[91] <= 1
 clq816: x[67] + x[135] <= 1
 clq817: x[70] + x[59] <= 1
 clq818: x[73] + x[36] <= 1
 clq819: x[77] + x[148] <= 1
 clq820: x[79] + x[50] <= 1
 clq821: x[87] + x[124] <= 1
 clq822: x[89] + x[55] <= 1
 clq823: x[93] + x[62] <= 1
 clq824: x[94] + x[82] <= 1
 clq825: x[115] + x[35] <= 1
 clq826: x[118] + x[65] <= 1
 clq827: x[2] + x[100] <= 1
 clq828: x[5] + x[126] <= 1
 clq829: x[136] + x[103] <= 1
 clq830: x[11] + x[140] <= 1
 clq831: x[146] + x[101] <= 1
 clq832: x[19] + x[108] <= 1
 clq833: x[22] + x[123] <= 1
 clq834: x[38] + x[130] <= 1
 clq835: x[2] + x[64] <= 1
 clq836: x[97] + x[18] <= 1
 clq837: x[99] + x[102] <= 1
 clq838: x[104] + x[9] <= 1
 clq839: x[112] + x[137] <= 1
 clq840: x[119] + x[59] <= 1
 clq841: x[3] + x[69] <= 1
 clq842: x[10] + x[58] <= 1
 clq843: x[13] + x[34] <= 1
 clq844: x[14] + x[138] <= 1
 clq845: x[19] + x[16] <= 1
 clq846: x[3] + x[30] <= 1
 clq847: x[67] + x[47] <= 1
 clq848: x[52] + x[85] <= 1
 clq849: x[141] + x[20] <= 1
 clq850: x[144] + x[25] <= 1
 clq851: x[97] + x[111] <= 1
 clq852: x[113] + x[74] <= 1
 clq853: x[4] + x[132] <= 1
 clq854: x[131] + x[24] <= 1
 clq855: x[44] + x[78] <= 1
 clq856: x[68] + x[54] <= 1
 clq857: x[33] + x[76] <= 1
 clq858: x[15] + x[149] <= 1
 clq859: x[56] + x[49] <= 1
 clq860: x[109] + x[139] <= 1
 clq861: x[116] + x[6] <= 1
 clq862: x[72] + x[71] <= 1
 clq863: x[75] + x[92] <= 1
 clq864: x[27] + x[142] <= 1
 clq865: x[106] + x[31] <= 1
 clq866: x[95] + x[25] <= 1
 clq867: x[84] + x[46] <= 1
 clq868: x[121] + x[88] <= 1
 clq869: x[117] + x[29] <= 1
 clq870: x[9] + x[43] <= 1
 clq871: x[45] + x[63] <= 1
 clq872: x[130] + x[120] <= 1
 clq873: x[140] + x[48] <= 1
 clq874: x[1] + x[89] <= 1
 clq875: x[128] + x[61] <= 1
 clq876: x[129] + x[66] <= 1
 clq877: x[7] + x[62] <= 1
 clq878: x[8] + x[99] <= 1
 clq879: x[143] + x[90] <= 1
 clq880: x[150] + x[31] <= 1
 clq881: x[23] + x[125] <= 1
 clq882: x[39] + x[12] <= 1
 clq883: x[40] + x[81] <= 1
 clq884: x[57] + x[124] <= 1
 clq885: x[70] + x[114] <= 1
 clq886: x[73] + x[60] <= 1
 clq887: x[77] + x[48] <= 1
 clq888: x[79] + x[115] <= 1
 clq889: x[87] + x[51] <= 1
 clq890: x[1] + x[93] <= 1
 clq891: x[94] + x[53] <= 1
 clq892: x[118] + x[4] <= 1
 clq893: x[5] + x[69] <= 1
 clq894: x[136] + x[83] <= 1
 clq895: x[11] + x[145] <= 1
 clq896: x[146] + x[65] <= 1
 clq897: x[5] + x[22] <= 1
 clq898: x[28] + x[82] <= 1
 clq899: x[37] + x[68] <= 1
 clq900: x[38] + x[117] <= 1
 clq901: x[115] + x[64] <= 1
 clq902: x[98] + x[10] <= 1
 clq903: x[100] + x[78] <= 1
 clq904: x[101] + x[21] <= 1
 clq905: x[104] + x[36] <= 1
 clq906: x[112] + x[148] <= 1
 clq907: x[119] + x[55] <= 1
 clq908: x[13] + x[41] <= 1
 clq909: x[14] + x[35] <= 1
 clq910: x[17] + x[16] <= 1
 clq911: x[26] + x[108] <= 1
 clq912: x[30] + x[131] <= 1
 clq913: x[47] + x[147] <= 1
 clq914: x[52] + x[88] <= 1
 clq915: x[141] + x[86] <= 1
 clq916: x[85] + x[24] <= 1
 clq917: x[100] + x[144] <= 1
 clq918: x[111] + x[32] <= 1
 clq919: x[113] + x[130] <= 1
 clq920: x[122] + x[105] <= 1
 clq921: x[123] + x[116] <= 1
 clq922: x[97] + x[132] <= 1
 clq923: x[10] + x[133] <= 1
 clq924: x[135] + x[34] <= 1
 clq925: x[18] + x[92] <= 1
 clq926: x[44] + x[56] <= 1
 clq927: x[58] + x[84] <= 1
 clq928: x[76] + x[107] <= 1
 clq929: x[91] + x[108] <= 1
 clq930: x[15] + x[81] <= 1
 clq931: x[20] + x[41] <= 1
 clq932: x[55] + x[139] <= 1
 clq933: x[126] + x[103] <= 1
 clq934: x[6] + x[75] <= 1
 clq935: x[137] + x[54] <= 1
 clq936: x[149] + x[74] <= 1
 clq937: x[11] + x[72] <= 1
 clq938: x[106] + x[102] <= 1
 clq939: x[110] + x[49] <= 1
 clq940: x[142] + x[78] <= 1
 clq941: x[82] + x[50] <= 1
 clq942: x[101] + x[80] <= 1
 clq943: x[27] + x[95] <= 1
 clq944: x[109] + x[96] <= 1
 clq945: x[146] + x[127] <= 1
 clq946: x[148] + x[43] <= 1
 clq947: x[45] + x[71] <= 1
 clq948: x[36] + x[46] <= 1
 clq949: x[57] + x[63] <= 1
 clq950: x[67] + x[120] <= 1
 clq951: x[138] + x[29] <= 1
 clq952: x[128] + x[86] <= 1
 clq953: x[129] + x[121] <= 1
 clq954: x[7] + x[95] <= 1
 clq955: x[8] + x[64] <= 1
 clq956: x[143] + x[96] <= 1
 clq957: x[150] + x[59] <= 1
 clq958: x[23] + x[80] <= 1
 clq959: x[39] + x[22] <= 1
 clq960: x[40] + x[88] <= 1
 clq961: x[70] + x[133] <= 1
 clq962: x[73] + x[33] <= 1
 clq963: x[77] + x[16] <= 1
 clq964: x[79] + x[52] <= 1
 clq965: x[87] + x[54] <= 1
 clq966: x[89] + x[125] <= 1
 clq967: x[90] + x[93] <= 1
 clq968: x[94] + x[142] <= 1
 clq969: x[118] + x[126] <= 1
 clq970: x[2] + x[28] <= 1
 clq971: x[136] + x[139] <= 1
 clq972: x[19] + x[112] <= 1
 clq973: x[37] + x[20] <= 1
 clq974: x[38] + x[30] <= 1
 clq975: x[53] + x[43] <= 1
 clq976: x[66] + x[65] <= 1
 clq977: x[98] + x[111] <= 1
 clq978: x[99] + x[71] <= 1
 clq979: x[104] + x[149] <= 1
 clq980: x[114] + x[85] <= 1
 clq981: x[119] + x[61] <= 1
 clq982: x[3] + x[26] <= 1
 clq983: x[9] + x[134] <= 1
 clq984: x[12] + x[84] <= 1
 clq985: x[13] + x[102] <= 1
 clq986: x[14] + x[83] <= 1
 clq987: x[47] + x[91] <= 1
 clq988: x[60] + x[113] <= 1
 clq989: x[69] + x[44] <= 1
 clq990: x[141] + x[117] <= 1
 clq991: x[144] + x[140] <= 1
 clq992: x[122] + x[132] <= 1
 clq993: x[123] + x[120] <= 1
 clq994: x[4] + x[58] <= 1
 clq995: x[135] + x[24] <= 1
 clq996: x[145] + x[92] <= 1
 clq997: x[18] + x[45] <= 1
 clq998: x[21] + x[15] <= 1
 clq999: x[34] + x[50] <= 1
 clq1000: x[35] + x[107] <= 1
 clq1001: x[62] + x[124] <= 1
 clq1002: x[68] + x[110] <= 1
 clq1003: x[76] + x[105] <= 1
 clq1004: x[51] + x[116] <= 1
 clq1005: x[56] + x[46] <= 1
 clq1006: x[6] + x[72] <= 1
 clq1007: x[137] + x[63] <= 1
 clq1008: x[75] + x[31] <= 1
 clq1009: x[127] + x[147] <= 1
 clq1010: x[74] + x[49] <= 1
 clq1011: x[103] + x[32] <= 1
 clq1012: x[42] + x[29] <= 1
 clq1013: x[48] + x[25] <= 1
Bounds
Binaries
 x[1] x[128] x[129] x[7] x[8] x[143] x[17] x[150] x[23] x[27] x[39] x[40]
 x[57] x[67] x[70] x[73] x[77] x[79] x[87] x[89] x[90] x[93] x[94] x[115]
 x[118] x[121] x[2] x[5] x[136] x[11] x[146] x[19] x[22] x[28] x[37] x[38]
 x[53] x[64] x[66] x[82] x[97] x[98] x[99] x[100] x[101] x[104] x[112]
 x[114] x[119] x[3] x[9] x[10] x[12] x[13] x[14] x[16] x[26] x[30] x[33]
 x[47] x[52] x[138] x[60] x[61] x[69] x[141] x[85] x[144] x[111] x[113]
 x[122] x[123] x[4] x[131] x[132] x[133] x[135] x[145] x[18] x[21] x[24]
 x[34] x[35] x[44] x[55] x[58] x[62] x[68] x[76] x[91] x[106] x[109] x[140]
 x[15] x[20] x[51] x[56] x[59] x[139] x[81] x[105] x[116] x[148] x[125]
 x[126] x[6] x[137] x[149] x[72] x[75] x[83] x[102] x[110] x[130] x[134]
 x[142] x[31] x[50] x[65] x[80] x[86] x[95] x[96] x[124] x[127] x[74] x[84]
 x[88] x[103] x[117] x[36] x[43] x[108] x[32] x[41] x[42] x[45] x[46] x[63]
 x[120] x[49] x[48] x[78] x[147] x[54] x[92] x[71] x[107] x[25] x[29]
End
